(set-logic ALL)
(declare-const path String)
(declare-const prefixed_path String)
(declare-const source_storage String)
(assert (not (< (str.len prefixed_path) 0)))
(assert (not (str.prefixof "/" prefixed_path)))
(assert (not (< (str.len (str.++ "/var/www/example.com/static" (str.++ "/" prefixed_path))) 0)))
(assert (str.prefixof "/" (str.++ "/var/www/example.com/static" (str.++ "/" prefixed_path))))
(assert (not (= (str.++ "/var/www/example.com/static" (str.++ "/" prefixed_path)) "")))
(assert (not (< (str.len (str.++ "/var/www/example.com/static" (str.++ "/" prefixed_path))) 0)))
(assert (str.prefixof "/" (str.++ "/var/www/example.com/static" (str.++ "/" prefixed_path))))
(assert (not (< (str.len (str.++ "/var/www/example.com/static" (str.++ "/" prefixed_path))) 0)))
(assert (not (str.prefixof "//" (str.++ "/var/www/example.com/static" (str.++ "/" prefixed_path)))))
(assert (not (< (str.len (str.++ "/var/www/example.com/static" (str.++ "/" prefixed_path))) 0)))
(assert (not (= (+ 0 (str.indexof (str.++ "/var/www/example.com/static" (str.++ "/" prefixed_path)) "/" 0)) (- 1))))
(assert (not (< (+ 0 (str.indexof (str.++ "/var/www/example.com/static" (str.++ "/" prefixed_path)) "/" 0)) 0)))
(assert (not (< (+ (+ 0 (str.indexof (str.++ "/var/www/example.com/static" (str.++ "/" prefixed_path)) "/" 0)) 1) 0)))
(assert (< (str.len (str.++ "/var/www/example.com/static" (str.++ "/" prefixed_path))) 0))
(check-sat)
(get-value (path))
(get-value (prefixed_path))
(get-value (source_storage))
